606,-68
765,-127
742,21
755,178
681,196
591,406
609,458
672,347
491,32
342,67
269,107
474,374
510,351
425,323
307,596
231,406
296,345
381,406
681,586
926,887
1001,569
921,284
858,434
822,600
560,494
539,452
786,551
820,833
838,891
681,766
704,554
681,376
736,235
663,349
914,173
681,616
868,501
540,600
